&CONTROL
   calculation      = 'scf'
   verbosity        = 'high'
   restart_mode     = 'from_scratch'
   outdir           = '/bsuhome/zayahcortright/scratch'
   prefix           = 'pwscf'
   disk_io          = 'low'
/
&SYSTEM
   ecutwfc          = 60
   ecutrho          = 480
   occupations      = 'smearing'
   degauss          = 0.07
   smearing         = 'gaussian'
   ntyp             = 4
   nat              = 51
   ibrav            = 0
/
&ELECTRONS
   electron_maxstep = 200
   conv_thr         = 1e-08
   mixing_mode      = 'local-TF'
   mixing_beta      = 0.15
   diagonalization  = 'david'
/
&IONS
/
&CELL
/
&FCP
/
&RISM
/
ATOMIC_SPECIES
O 15.999 O.pbe-n-kjpaw_psl.0.1.UPF
La 138.90547 La.paw.z_11.atompaw.wentzcovitch.v1.2.upf
Ni 58.6934 ni_pbe_v1.4.uspp.F.UPF
H 1.008 H.pbe-rrkjus_psl.1.0.0.UPF

K_POINTS automatic
4 4 1  0 0 0

CELL_PARAMETERS angstrom
7.75214280338496 0.00000000000000 0.00000000000000
0.00000000000000 7.75214280338496 0.00000000000000
0.00000000000000 0.00000000000000 11.56682402000000

ATOMIC_POSITIONS angstrom
O 0.0084001500 5.8675793000 3.8556080100  
La 5.8077114400 5.8077114500 1.9031049800  
La 5.8077114500 5.8077114400 5.8081110300  
La 1.9444313500 1.9444313500 5.7587129800  
La 1.9444313500 1.9444313500 1.9525030300  
La 1.9428236000 5.8093192000 1.9278040000  
La 1.9428236000 5.8093192000 5.7834120100  
Ni 0.0071663600 0.0071663700 3.8556080100  
Ni 3.8816963400 3.8816963300 3.8556080100  
Ni 0.0111835500 3.8776791500 3.8556080100  
O 0.0139669600 1.8877790000 3.8556080100  
O 3.8748957400 2.0010837100 3.8556080100  
O 2.0010837100 3.8748957400 3.8556080100  
O 1.8877790000 0.0139669600 3.8556080100  
O 5.7840269400 3.8856472100 3.8556080100  
O 3.8856472100 5.7840269400 3.8556080100  
O 0.0111835600 3.8776791500 1.8567374400  
O 0.0111835500 3.8776791500 5.8544785700  
O 3.8760714000 3.8760714100 1.9278040000  
O 0.0127913100 0.0127913000 5.7834120100  
O 0.0127913100 0.0127913000 1.9278040000  
O 3.8760714000 3.8760714100 5.7834120100  
La 5.8093192000 1.9428236000 1.9278040000  
La 5.8093192000 1.9428236000 5.7834120100  
Ni 3.8776791500 0.0111835500 3.8556080100  
O 5.8675793000 0.0084001500 3.8556080100  
O 3.8776791500 0.0111835600 1.8567374400  
O 3.8776791500 0.0111835500 5.8544785700  
O 0.0000000000 5.8346114500 7.7112160100  
La 5.8077114400 5.8077114500 9.6143209900  
La 1.9444313500 1.9444313500 9.6637190400  
La 1.9428236000 5.8093192000 9.6390200100  
Ni 3.8704464600 3.8704464700 7.7112160100  
Ni 0.0184162400 0.0184162400 7.7112160100  
Ni 0.0111835600 3.8776791500 7.7112160100  
O 3.8772470600 5.7510590900 7.7112160100  
O 5.7510590900 3.8772470600 7.7112160100  
O 1.9681158600 3.8664956000 7.7112160100  
O 1.9207468500 0.0223671100 7.7112160100  
O 0.0223671100 1.9207468500 7.7112160100  
O 3.8664956000 1.9681158600 7.7112160100  
O 0.0111835600 3.8776791500 9.5679534500  
O 3.8760714000 3.8760714100 9.6390200100  
O 0.0127913100 0.0127913000 9.6390200100  
La 5.8093192000 1.9428236000 9.6390200100  
Ni 3.8776791500 0.0111835600 7.7112160100  
O 5.8346114500 0.0000000000 7.7112160100  
O 3.8776791500 0.0111835600 9.5679534500  
O 2.2358285714 5.5895714286 12.6637190400  
O 2.2358285714 5.5895714286 13.9096750400  
H 2.2358285714 5.5895714286 14.8887450400  

