&CONTROL
   calculation      = 'scf'
   verbosity        = 'high'
   restart_mode     = 'from_scratch'
   outdir           = './tmp'
   prefix           = 'pwscf'
   disk_io          = 'low'
/
&SYSTEM
   ecutwfc          = 60
   ecutrho          = 480
   ntyp             = 4
   nat              = 49
   ibrav            = 0
/
&ELECTRONS
   conv_thr         = 1e-08
   mixing_mode      = 'local-TF'
   mixing_beta      = 0.35
   diagonalization  = 'david'
/
&IONS
/
&CELL
/
&FCP
/
&RISM
/
ATOMIC_SPECIES
Sr 87.62 Sr_pbe_v1.uspp.F.UPF
Ti 47.867 Ti.pbe-spn-kjpaw_psl.1.0.0.UPF
O 15.999 O.pbe-n-kjpaw_psl.0.1.UPF
H 1.008 H.pbe-rrkjus_psl.1.0.0.UPF

K_POINTS automatic
4 4 1  0 0 0

CELL_PARAMETERS angstrom
7.82540000000000 0.00000000000000 0.00000000000000
0.00000000000000 7.82540000000000 0.00000000000000
0.00000000000000 0.00000000000000 23.69450000000000

ATOMIC_POSITIONS angstrom
Sr 1.9564282500 1.9564282500 8.9126861800  
Ti 3.9127782500 3.9127782500 10.8691410400  
O 1.9564282500 3.9127782500 10.8691410400  
O 3.9127782500 1.9564282500 10.8691410400  
O 3.9127782500 3.9127782500 8.9126861800  
Sr 1.9564282500 5.8691282500 8.9126861800  
Ti 3.9127782500 0.0000782500 10.8691410400  
O 1.9564282500 0.0000782500 10.8691410400  
O 3.9127782500 5.8691282500 10.8691410400  
O 3.9127782500 0.0000782500 8.9126861800  
Sr 5.8691282500 1.9564282500 8.9126861800  
Ti 0.0000782500 3.9127782500 10.8691410400  
O 5.8691282500 3.9127782500 10.8691410400  
O 0.0000782500 1.9564282500 10.8691410400  
O 0.0000782500 3.9127782500 8.9126861800  
Sr 5.8691282500 5.8691282500 8.9126861800  
Ti 0.0000782500 0.0000782500 10.8691410400  
O 5.8691282500 0.0000782500 10.8691410400  
O 0.0000782500 5.8691282500 10.8691410400  
O 0.0000782500 0.0000782500 8.9126861800  
Sr 1.9564282500 1.9564282500 12.8253589600  
Ti 3.9127782500 3.9127782500 14.7818138300  
O 1.9564282500 3.9127782500 14.7818138300  
O 3.9127782500 1.9564282500 14.7818138300  
O 3.9127782500 3.9127782500 12.8253589600  
Sr 1.9564282500 5.8691282500 12.8253589600  
Ti 3.9127782500 0.0000782500 14.7818138300  
O 1.9564282500 0.0000782500 14.7818138300  
O 3.9127782500 5.8691282500 14.7818138300  
O 3.9127782500 0.0000782500 12.8253589600  
Sr 5.8691282500 1.9564282500 12.8253589600  
Ti 0.0000782500 3.9127782500 14.7818138300  
O 5.8691282500 3.9127782500 14.7818138300  
O 0.0000782500 1.9564282500 14.7818138300  
O 0.0000782500 3.9127782500 12.8253589600  
Sr 5.8691282500 5.8691282500 12.8253589600  
Ti 0.0000782500 0.0000782500 14.7818138300  
O 5.8691282500 0.0000782500 14.7818138300  
O 0.0000782500 5.8691282500 14.7818138300  
O 0.0000782500 0.0000782500 12.8253589600  
Sr 1.9564282500 1.9564282500 16.7380317500  
O 3.9127782500 3.9127782500 16.7380317500  
Sr 1.9564282500 5.8691282500 16.7380317500  
O 3.9127782500 0.0000782500 16.7380317500  
Sr 5.8691282500 1.9564282500 16.7380317500  
O 0.0000782500 3.9127782500 16.7380317500  
Sr 5.8691282500 5.8691282500 16.7380317500  
O 0.0000782500 0.0000782500 16.7380317500  
H 6.7074857143 5.5895714286 19.7380317500  

