&CONTROL
   calculation      = 'scf'
   verbosity        = 'high'
   restart_mode     = 'from_scratch'
   tprnfor          = .true.
   outdir           = './tmp'
   prefix           = 'pwscf'
   pseudo_dir       = 'SSSP_acc_PBE'
/
&SYSTEM
   ecutwfc          = 60
   ecutrho          = 480
   occupations      = 'smearing'
   smearing         = 'gaussian'
   deguass          = 0.02
   ntyp             = 4
   nat              = 51
   ibrav            = 0
/
&ELECTRONS
   conv_thr         = 1e-08
   mixing_mode      = 'local-TF'
   mixing_beta      = 0.35
   diagonalization  = 'david'
/
&IONS
/
&CELL
/
&FCP
/
&RISM
/
ATOMIC_SPECIES
Sr 87.62 Sr.pbe-spn-rrkjus_psl.1.0.0.UPF
Ti 47.867 ti_pbe_v1.4.uspp.F.UPF
O 15.999 O.pbe-n-kjpaw_psl.0.1.UPF
H 1.008 H.pbe-rrkjus_psl.0.1.UPF

K_POINTS automatic
4 4 1  0 0 0

CELL_PARAMETERS angstrom
7.82540000000000 0.00000000000000 0.00000000000000
0.00000000000000 7.82540000000000 0.00000000000000
0.00000000000000 0.00000000000000 23.69450000000000

ATOMIC_POSITIONS angstrom
Sr 1.9564282540 1.9564282540 8.9126861750  
Ti 3.9127782540 3.9127782540 10.8691410400  
O 1.9564282540 3.9127782540 10.8691410400  
O 3.9127782540 1.9564282540 10.8691410400  
O 3.9127782540 3.9127782540 8.9126861750  
Sr 1.9564282540 5.8691282540 8.9126861750  
Ti 3.9127782540 0.0000782540 10.8691410400  
O 1.9564282540 0.0000782540 10.8691410400  
O 3.9127782540 5.8691282540 10.8691410400  
O 3.9127782540 0.0000782540 8.9126861750  
Sr 5.8691282540 1.9564282540 8.9126861750  
Ti 0.0000782540 3.9127782540 10.8691410400  
O 5.8691282540 3.9127782540 10.8691410400  
O 0.0000782540 1.9564282540 10.8691410400  
O 0.0000782540 3.9127782540 8.9126861750  
Sr 5.8691282540 5.8691282540 8.9126861750  
Ti 0.0000782540 0.0000782540 10.8691410400  
O 5.8691282540 0.0000782540 10.8691410400  
O 0.0000782540 5.8691282540 10.8691410400  
O 0.0000782540 0.0000782540 8.9126861750  
Sr 1.9564282540 1.9564282540 12.8253589600  
Ti 3.9127782540 3.9127782540 14.7818138250  
O 1.9564282540 3.9127782540 14.7818138250  
O 3.9127782540 1.9564282540 14.7818138250  
O 3.9127782540 3.9127782540 12.8253589600  
Sr 1.9564282540 5.8691282540 12.8253589600  
Ti 3.9127782540 0.0000782540 14.7818138250  
O 1.9564282540 0.0000782540 14.7818138250  
O 3.9127782540 5.8691282540 14.7818138250  
O 3.9127782540 0.0000782540 12.8253589600  
Sr 5.8691282540 1.9564282540 12.8253589600  
Ti 0.0000782540 3.9127782540 14.7818138250  
O 5.8691282540 3.9127782540 14.7818138250  
O 0.0000782540 1.9564282540 14.7818138250  
O 0.0000782540 3.9127782540 12.8253589600  
Sr 5.8691282540 5.8691282540 12.8253589600  
Ti 0.0000782540 0.0000782540 14.7818138250  
O 5.8691282540 0.0000782540 14.7818138250  
O 0.0000782540 5.8691282540 14.7818138250  
O 0.0000782540 0.0000782540 12.8253589600  
Sr 1.9564282540 1.9564282540 16.7380317450  
O 3.9127782540 3.9127782540 16.7380317450  
Sr 1.9564282540 5.8691282540 16.7380317450  
O 3.9127782540 0.0000782540 16.7380317450  
Sr 5.8691282540 1.9564282540 16.7380317450  
O 0.0000782540 3.9127782540 16.7380317450  
Sr 5.8691282540 5.8691282540 16.7380317450  
O 0.0000782540 0.0000782540 16.7380317450  
O 3.3537428571 1.1179142857 19.7380317450  
O 3.3537428571 1.1179142857 19.7380317450  
H 3.3537428571 1.1179142857 19.7380317450  

