&CONTROL
  calculation = 'scf'
  etot_conv_thr =   5.0000000000d-05
  forc_conv_thr =   1.0000000000d-04
  max_seconds =   2.7360000000d+04
  outdir = './out/'
  prefix = 'aiida'
  pseudo_dir = './pseudo/'
  restart_mode = 'from_scratch'
  tprnfor = .true.
  tstress = .true.
  verbosity = 'high'
/
&SYSTEM
  degauss =   1.0000000000d-02
  ecutrho =   4.0000000000d+02
  ecutwfc =   5.0000000000d+01
  ibrav = 0
  nat = 5
  nbnd = 24
  nspin = 1
  ntyp = 3
  occupations = 'smearing'
  smearing = 'cold'
/
&ELECTRONS
  conv_thr =   1.0000000000d-09
  electron_maxstep = 80
  mixing_beta =   4.0000000000d-01
/
ATOMIC_SPECIES
Ba     137.327 Ba.pbesol-spn-kjpaw_psl.1.0.0.UPF
O      15.9994 O.pbesol-n-kjpaw_psl.0.1.UPF
Ti     47.867 ti_pbesol_v1.4.uspp.F.UPF
ATOMIC_POSITIONS angstrom 
Ti           0.0000000000       0.0000000000       0.0000000000 
O            2.0118530774       0.0000000000       0.0000000000 
O            0.0000000000       2.0118530774       0.0000000000 
O            0.0000000000       0.0000000000       2.0118530774 
Ba           2.0118530774       2.0118530774       2.0118530774
K_POINTS automatic
11 11 11 0 0 0
CELL_PARAMETERS angstrom
      4.0237061547       0.0000000000       0.0000000000
      0.0000000000       4.0237061547       0.0000000000
      0.0000000000       0.0000000000       4.0237061547
HUBBARD {ortho-atomic}
U Ti-3d 1.d-10
V Ti-3d O-2p 1 2 1.d-10
