&CONTROL
   calculation      = 'scf'
   verbosity        = 'high'
   restart_mode     = 'from_scratch'
   outdir           = '/bsuhome/zayahcortright/scratch'
   prefix           = 'pwscf'
   disk_io          = 'low'
/
&SYSTEM
   ecutwfc          = 60
   ecutrho          = 480
   occupations      = 'smearing'
   degauss          = 0.07
   smearing         = 'gaussian'
   ntyp             = 4
   nat              = 50
   ibrav            = 0
/
&ELECTRONS
   electron_maxstep = 200
   conv_thr         = 1e-08
   mixing_mode      = 'local-TF'
   mixing_beta      = 0.15
   diagonalization  = 'david'
/
&IONS
/
&CELL
/
&FCP
/
&RISM
/
ATOMIC_SPECIES
Sr 87.62 Sr_pbe_v1.uspp.F.UPF
O 15.999 O.pbe-n-kjpaw_psl.0.1.UPF
Co 58.933194 Co_pbe_v1.2.uspp.F.UPF
H 1.008 H.pbe-rrkjus_psl.1.0.0.UPF

K_POINTS automatic
4 4 1  0 0 0

CELL_PARAMETERS angstrom
7.86352253710473 0.00000000000000 0.00000000000000
0.00000000000000 7.86352253710474 0.00000000000000
0.00000000000000 0.00000000000000 19.90285925000000

ATOMIC_POSITIONS angstrom
Sr 1.9727161100 5.8908064200 13.8196744500  
O 3.9200767700 3.9434457600 13.9309908000  
Sr 5.8838003200 5.8618767200 13.8780708700  
Sr 5.8518356100 2.0116869200 13.8931478500  
Sr 1.9727161100 5.8908064200 9.9841563500  
Sr 1.9727161100 5.8908064200 6.0016914500  
Co 3.9309072700 3.9326152600 7.9929239000  
Co 3.8821545000 3.9813680300 11.9019154000  
O 3.9230286500 5.9844559900 7.9929239000  
O 1.8790665400 3.9404938900 7.9929239000  
O 0.0557662200 5.7992538000 7.9929239000  
O 0.0694664000 5.8230086500 11.9019154000  
O 3.9844030300 5.8310978500 11.9019154000  
O 2.0324246900 3.8791195000 11.9019154000  
O 3.9200767700 3.9434457600 6.1130078000  
O 3.9200767700 3.9434457600 9.8728400000  
Sr 5.8838003200 5.8618767200 6.0600878700  
Sr 5.8838003200 5.8618767200 9.9257599300  
Sr 5.8518356100 2.0116869200 6.0751648500  
Sr 5.8518356100 2.0116869200 9.9106829500  
O 5.7581860400 0.0613743900 11.9019154000  
O 5.9433882400 3.9286368100 11.9019154000  
O 3.9348857300 1.9201343000 11.9019154000  
O 5.9196333900 3.9149366400 7.9929239000  
O 3.9485859000 1.9438891500 7.9929239000  
O 5.9115441900 0.0000000000 7.9929239000  
O 0.0903997600 3.8909682700 13.7260306500  
O 0.0379222700 0.0612912700 13.9309908000  
Sr 2.0016458200 1.9797222200 13.8780708700  
O 3.9695192600 0.0118487700 13.9867916500  
Co 0.0447192500 3.9366487800 7.9929239000  
Co 0.0513603100 3.9300077300 11.9019154000  
Co 0.0487527700 0.0504607700 7.9929239000  
Co 0.0000000000 0.0992135400 11.9019154000  
O 0.0903997600 3.8909682700 10.0778001500  
O 0.0903997600 3.8909682700 5.9080476500  
O 0.0408741400 2.1023014900 7.9929239000  
O 0.1022485300 1.9489433400 11.9019154000  
O 0.0379222700 0.0612912700 6.1130078000  
O 0.0379222700 0.0612912700 9.8728400000  
Sr 2.0016458200 1.9797222200 6.0600878700  
Sr 2.0016458200 1.9797222200 9.9257599300  
Co 3.9238387500 0.0575292800 11.9019154000  
Co 3.9304798000 0.0508882300 7.9929239000  
O 3.9695192600 0.0118487700 6.1688086500  
O 3.9695192600 0.0118487700 9.8170391500  
O 2.0612337300 0.0464823100 11.9019154000  
O 2.0374788800 0.0327821400 7.9929239000  
O 2.2358285714 7.8254000000 16.9867916500  
H 2.2358285714 7.8254000000 17.9658616500  

